c Random generated cnf formula, satisfiable: false
p cnf 10 50
-3 -2 -7 0
3 9 -10 0
3 -6 1 0
3 -5 2 0
-5 -3 -9 0
10 -9 -3 0
6 -8 3 0
-3 -2 -8 0
-4 8 1 0
1 4 9 0
2 -9 10 0
-1 7 9 0
3 -4 9 0
-5 2 -1 0
6 1 -4 0
-7 -9 2 0
-3 4 -1 0
-4 5 -1 0
6 -8 1 0
5 -4 -6 0
6 1 -10 0
-2 -9 1 0
10 3 -7 0
-2 -1 -6 0
8 -3 -4 0
-7 5 -4 0
-2 -9 -8 0
7 -6 -10 0
-5 -3 10 0
5 -6 8 0
-5 -9 1 0
5 -7 -4 0
2 10 4 0
4 -9 5 0
-3 -5 -8 0
2 4 -10 0
-1 9 -8 0
-6 8 -9 0
3 -10 -7 0
3 4 9 0
2 -7 -4 0
-7 -5 4 0
10 9 6 0
6 -4 -10 0
-6 5 -1 0
-4 -6 -3 0
6 -9 -2 0
7 1 -6 0
7 -8 2 0
8 10 1 0
